c --- [ banner ] -------------------------------------------------------------
c 
c CaDiCaL SAT Solver
c Copyright (c) 2016-2023 A. Biere, M. Fleury, N. Froleyks, K. Fazekas, F. Pollitt
c 
c Version 1.9.5
c g++ (Ubuntu 11.4.0-1ubuntu1~22.04) 11.4.0 -Wall -Wextra -O3 -DNDEBUG -static
c Thu Mar 7 06:16:21 CET 2024 Linux pc101447 6.5.0-17-generic x86_64
c 
c --- [ limit ] --------------------------------------------------------------
c 
c setting time limit to 3600 seconds real time (due to '-t 3600')
c 
c --- [ parsing input ] ------------------------------------------------------
c 
c reading DIMACS file from '/home/oliveras/SAT-comp-2023//0eb98926b26343d31954169dfbde2b24-satcoin-genesis-UNSAT-11900.cnf'
c opening file to read '/home/oliveras/SAT-comp-2023//0eb98926b26343d31954169dfbde2b24-satcoin-genesis-UNSAT-11900.cnf'
c found 'p cnf 134781 648806' header
c parsed 648806 clauses in 0.38 seconds process time
c 
c --- [ options ] ------------------------------------------------------------
c 
c   --seed=1                       (different from default '0')
c 
c --- [ solving ] ------------------------------------------------------------
c 
c time measured in process time since initialization
c 
c  seconds  reductions  redundant  irredundant
c         MB    restarts       trail       variables
c          level   conflicts       glue          remaining
c 
c *  0.38 89  0 0   0    0    0  0% 0 648661 125485 93%
c {  0.45 102  0 0   0    0    0  0% 0 648661 125485 93%
c i  0.45 102  1 0   0    1    0  0% 0 648661 125475 93%
c -  0.60 103 735 1  46  302  287  3% 11 647021 125475 93%
c }  0.64 104 457 1  85 1000  932  3% 12 647021 125475 93%
c [  0.64 104  0 1  85 1000  932  0% 0 647021 125475 93%
c O  0.76 107 2117 1  85 1003  934 64% 14 647021 125475 93%
c - 13.07 144 26 2  85 1389  925 63% 9 647021 125475 93%
c ] 53.66 144 13 2  86 3000 1452 56% 8 647021 125475 93%
c { 53.66 144 457 2  86 3000 1452  3% 12 647021 125475 93%
c F 53.68 144 457 2  88 3005 1457  4% 13 647021 125475 93%
c - 53.81 144 455 3  91 3018 1129  4% 13 647021 125475 93%
c s 55.18 161 342 3 241 4741 2684  5% 20 646769 125475 93%
c v 56.06 162 342 3 241 4741 2684  5% 20 646523 125475 93%
c w 56.25 162 342 3 241 4741 2683  5% 20 646523 125475 93%
c t 56.28 162 342 3 241 4741 2678  5% 20 646520 125143 93%
c e 57.21 164 342 3 241 4741  990  5% 20 553878 82879 61%
c s 57.32 168 342 3 241 4741  983  5% 20 553856 82879 61%
c e 57.45 168 342 3 241 4741  983  5% 20 553848 82877 61%
c d 58.99 143 334 3 290 5000 1234 25% 28 553842 82875 61%
c 
c  seconds    reductions   redundant   irredundant
c          MB     restarts        trail        variables
c            level   conflicts        glue          remaining
c 
c 3 59.25 144 334 3 290 5000 15880 25% 28 553842 82875 61%
c 3 59.29 144 334 3 290 5000 20499 25% 28 553842 82875 61%
c d 59.41 144 334 3 290 5000 20311 25% 28 553842 82858 61%
c 2 59.46 144 334 3 290 5000 20310 25% 28 553840 82841 61%
c p 59.51 144 334 3 290 5000 25332 25% 28 553840 82810 61%
c d 59.56 144 334 3 290 5000 25142 25% 28 553311 82809 61%
c d 59.61 144 334 3 290 5000 25098 25% 28 553182 82759 61%
c - 60.18 166 329 4 334 5192 3925 21% 31 553182 82759 61%
c # 63.98 166 312 4 494 6007 4714 26% 50 553182 82759 61%
c } 66.22 166 295 4 571 7000 5679 21% 54 553182 82759 61%
c [ 66.22 166 13 4 571 7000 5679 91% 8 553182 82759 61%
c - 87.50 166 18 5 572 7806 5823 87% 8 553182 82759 61%
c I 153.82 166 14 5 573 10009 7399 91% 8 553182 82759 61%
c - 182.35 166 13 6 574 10944 6359 92% 8 553182 82759 61%
c - 276.89 166 11 7 576 14604 6230 89% 8 553182 82759 61%
c ] 287.90 166 11 7 576 15000 6334 89% 8 553182 82759 61%
c { 287.90 166 295 7 576 15000 6334 21% 54 553182 82759 61%
c 3 288.03 166 295 7 576 15000 18504 21% 54 553182 82759 61%
c d 288.19 166 295 7 576 15000 23309 21% 54 553182 82758 61%
c 2 288.23 166 295 7 576 15000 23297 21% 54 553179 82756 61%
c 
c  seconds     reductions    redundant   irredundant
c           MB     restarts         trail        variables
c             level    conflicts        glue          remaining
c 
c p 288.27 166 295 7 576 15000 27932 21% 54 553179 82756 61%
c B 288.38 166 295 7 577 15011 27943 21% 54 553179 82756 61%
c s 290.31 166 290 7 668 15703 26906 20% 58 552994 82756 61%
c v 291.31 166 290 7 668 15703 26906 20% 58 549234 82756 61%
c w 291.72 166 290 7 668 15703 26724 20% 58 549234 82756 61%
c t 291.74 166 290 7 668 15703 26695 20% 58 549223 82756 61%
c e 291.89 166 290 7 668 15703 26365 20% 58 549189 82726 61%
c s 291.91 166 290 7 668 15703 26094 20% 58 549179 82726 61%
c e 291.99 166 290 7 668 15703 25040 20% 58 549039 82704 61%
c - 293.96 167 274 8 742 18788 9817 13% 53 549039 82704 61%
c W 296.02 168 276 8 782 21012 11904 11% 50 549039 82704 61%
c - 296.34 168 274 9 783 23484 11174  9% 46 549039 82704 61%
c F 298.37 168 273 9 895 28013 15540  8% 44 549039 82704 61%
c - 298.80 168 272 10 924 28703 12326  8% 44 549039 82704 61%
c d 299.62 168 273 10 990 30003 13586  8% 43 549039 82703 61%
c 3 299.69 168 273 10 990 30003 18038  8% 43 549039 82703 61%
c d 299.82 168 273 10 990 30003 23463  8% 43 549039 82702 61%
c 2 299.86 168 273 10 990 30003 23459  8% 43 549039 82702 61%
c p 299.90 168 273 10 990 30003 28095  8% 43 549039 82698 61%
c d 299.95 168 273 10 990 30003 28073  8% 43 548989 82697 61%
c 
c  seconds     reductions     redundant   irredundant
c           MB      restarts         trail        variables
c             level     conflicts        glue          remaining
c 
c d 299.99 168 273 10 990 30003 28073  8% 43 548975 82690 61%
c } 306.37 168 271 10 1185 31000 29049 10% 49 548975 82690 61%
c [ 306.37 168 11 10 1185 31000 29049 89% 8 548975 82690 61%
c s 315.52 168 35 10 1185 32089 29699 84% 8 548939 82690 61%
c v 316.15 168 35 10 1185 32089 29699 84% 8 548934 82690 61%
c w 316.30 168 35 10 1185 32089 29681 84% 8 548934 82690 61%
c t 316.32 168 35 10 1185 32089 29674 84% 8 548931 82690 61%
c e 316.42 168 35 10 1185 32089 29298 84% 8 548919 82682 61%
c s 316.44 168 35 10 1185 32089 29276 84% 8 548919 82682 61%
c e 316.52 168 35 10 1185 32089 29267 84% 8 548918 82681 61%
c - 365.53 168 31 11 1187 34444 18502 82% 9 548918 82681 61%
c B 404.48 168 28 11 1188 36015 18779 81% 9 548918 82681 61%
c - 520.63 168 23 12 1191 40707 14742 81% 8 548918 82681 61%
c i 596.90 168 21 12 1192 43574 15063 82% 8 548918 82676 61%
c W 633.48 168 20 12 1192 45016 14601 82% 8 548851 82676 61%
c - 690.75 168 19 13 1193 47492 14200 81% 8 548851 82676 61%
c i 714.79 168 18 13 1193 48492 14313 81% 8 548851 82675 61%
c d 755.56 168 18 13 1193 50004 14043 81% 8 548786 82663 61%
c d 755.60 168 18 13 1193 50004 14023 81% 8 548761 82653 61%
c 3 755.64 168 18 13 1193 50004 19918 81% 8 548760 82653 61%
c 
c  seconds    reductions      redundant  irredundant
c           MB     restarts          trail       variables
c            level      conflicts        glue         remaining
c 
c 2 755.78 168 18 13 1193 50004 20349 81% 8 548759 82653 61%
c p 755.81 168 18 13 1193 50004 24361 81% 8 548759 82653 61%
c i 771.13 168 18 13 1193 50623 24539 81% 8 548759 82651 61%
c i 810.15 168 17 13 1193 51955 24718 81% 8 548759 82631 61%
c ] 810.15 168 17 13 1193 51958 24719 81% 8 548759 82612 61%
c 0 810.15 168 17 13 1193 51958 24719 81% 8 548759 82612 61%
c 
c --- [ result ] -------------------------------------------------------------
c 
s UNSATISFIABLE
c 
c --- [ run-time profiling ] -------------------------------------------------
c 
c process time taken by individual solving procedures
c (percentage relative to process time for solving)
c 
c       802.79   99.14% search
c       776.18   95.85% stable
c        24.16    2.98% unstable
c         6.98    0.86% simplify
c         3.10    0.38% vivify
c         2.38    0.29% walk
c         1.44    0.18% elim
c         0.72    0.09% ternary
c         0.50    0.06% subsume
c         0.38    0.05% parse
c         0.15    0.02% probe
c         0.07    0.01% lucky
c   =================================
c       809.77   99.95% solve
c 
c last line shows process time for solving
c (percentage relative to total process time)
c 
c --- [ statistics ] ---------------------------------------------------------
c 
c chronological:              5377        10.35 %  of conflicts
c conflicts:                 51958        64.16    per second
c decisions:                247307       305.40    per second
c eliminated:                42308        31.39 %  of all variables
c fixed:                       923         0.68 %  of all variables
c learned:                   51107        98.36 %  per conflict
c learned_lits:           14533465       100.00 %  learned literals
c minimized:                     0         0.00 %  learned literals
c shrunken:                6324325        43.52 %  learned literals
c minishrunken:            4098428        28.20 %  learned literals
c otfs:                        613         1.18 %  of conflict
c propagations:         2196304932         2.71 M  per second
c reduced:                   20228        38.93 %  per conflict
c rephased:                      9      5773.11    interval
c restarts:                   1193        43.55    interval
c stabilizing:                   3        59.57 %  of conflicts
c substituted:                 103         0.08 %  of all variables
c subsumed:                  45178         4.30 %  of all clauses
c strengthened:              22140         2.11 %  of all clauses
c ternary:                   52606         0.61 %  of resolved
c trail reuses:                  0         0.00 %  of incremental calls
c vivified:                   4942         0.47 %  of all clauses
c walked:                        2     25979.00    interval
c weakened:                 192823         2.88    average size
c 
c seconds are measured in process time for solving
c 
c --- [ resources ] ----------------------------------------------------------
c 
c total process time since initialization:       810.15    seconds
c total real time since initialization:          810.32    seconds
c maximum resident set size of process:          185.29    MB
c 
c --- [ shutting down ] ------------------------------------------------------
c 
c exit 20
